************************************************************************
file with basedata            : md338_.bas
initial value random generator: 1841395836
************************************************************************
projects                      :  1
jobs (incl. supersource/sink ):  22
horizon                       :  157
RESOURCES
  - renewable                 :  2   R
  - nonrenewable              :  2   N
  - doubly constrained        :  0   D
************************************************************************
PROJECT INFORMATION:
pronr.  #jobs rel.date duedate tardcost  MPM-Time
    1     20      0       21       18       21
************************************************************************
PRECEDENCE RELATIONS:
jobnr.    #modes  #successors   successors
   1        1          3           2   3   4
   2        3          3           6   7   9
   3        3          3           5   8  10
   4        3          3           8  12  15
   5        3          2          12  17
   6        3          3          10  12  15
   7        3          2          11  17
   8        3          2          13  14
   9        3          1          16
  10        3          2          20  21
  11        3          2          14  15
  12        3          2          13  16
  13        3          1          19
  14        3          2          19  21
  15        3          1          16
  16        3          1          20
  17        3          3          18  19  21
  18        3          1          20
  19        3          1          22
  20        3          1          22
  21        3          1          22
  22        1          0        
************************************************************************
REQUESTS/DURATIONS:
jobnr. mode duration  R 1  R 2  N 1  N 2
------------------------------------------------------------------------
  1      1     0       0    0    0    0
  2      1     2       0    3    3    0
         2     6       7    0    2    0
         3     9       0    3    0    6
  3      1     2       0    3    0    7
         2     4       6    0    0    7
         3     7       6    0    0    5
  4      1     1       0    3    0    9
         2     2       5    0    0    8
         3     4       4    0    0    7
  5      1     9       0    8    4    0
         2     9       0    6    5    0
         3    10       5    0    0    3
  6      1     1       7    0    0    5
         2     8       0    2    8    0
         3    10       6    0    0    4
  7      1     3       0    7    7    0
         2     5       0    5    7    0
         3     9       0    3    6    0
  8      1     5       5    0    8    0
         2     7       5    0    5    0
         3     9       0    8    0    1
  9      1     2       0    3    9    0
         2     3       3    0    9    0
         3     7       1    0    0    3
 10      1     1       6    0    0    2
         2     3       0   10   10    0
         3     7       5    0    8    0
 11      1     2       0    4    0    6
         2     6       0    3    0    4
         3     7       6    0    0    3
 12      1     2       8    0    9    0
         2     3       0    2    6    0
         3     7       3    0    0    9
 13      1     1       0   10    2    0
         2     1      10    0    4    0
         3     9       0   10    0    4
 14      1     3       6    0    5    0
         2     3       0    1    9    0
         3     6       8    0    3    0
 15      1     3       5    0    4    0
         2     6       4    0    0    8
         3     6       5    0    0    2
 16      1     5       2    0    0    8
         2     7       0    3    0    8
         3     9       0    2    7    0
 17      1     1       6    0    4    0
         2     4       5    0    2    0
         3     9       3    0    2    0
 18      1     3       0    7    0    8
         2     6       0    4    0    7
         3     8       5    0    0    4
 19      1     1       0    8    4    0
         2     2       7    0    0    6
         3     8       0    8    0    2
 20      1     3       9    0   10    0
         2     7       0    7    0    7
         3     7       8    0   10    0
 21      1     1       6    0    0    2
         2     3       5    0    0    1
         3     9       0    5    5    0
 22      1     0       0    0    0    0
************************************************************************
RESOURCEAVAILABILITIES:
  R 1  R 2  N 1  N 2
   16   16   82   75
************************************************************************
MAXIMAL LAGS:
from  to  type  delay
    1   22   ES      0
    1    2   ES      0
    2   22   ES      0
    1    3   ES      0
    3   22   ES      0
    1    4   ES      0
    4   22   ES      0
    1    5   ES      0
    5   22   ES      0
    1    6   ES      0
    6   22   ES      0
    1    7   ES      0
    7   22   ES      0
    1    8   ES      0
    8   22   ES      0
    1    9   ES      0
    9   22   ES      0
    1   10   ES      0
   10   22   ES      0
    1   11   ES      0
   11   22   ES      0
    1   12   ES      0
   12   22   ES      0
    1   13   ES      0
   13   22   ES      0
    1   14   ES      0
   14   22   ES      0
    1   15   ES      0
   15   22   ES      0
    1   16   ES      0
   16   22   ES      0
    1   17   ES      0
   17   22   ES      0
    1   18   ES      0
   18   22   ES      0
    1   19   ES      0
   19   22   ES      0
    1   20   ES      0
   20   22   ES      0
    1   21   ES      0
   21   22   ES      0
    1   22   ES      0
    2    6   SS     12
    2    6   SE     -2
    2    6   ES     11
    2    6   EE      0
    2    7   SS     -6
    2    7   SE      0
    2    7   ES     -7
    2    7   EE    -12
    2    9   SS     -1
    2    9   SE    -12
    2    9   ES    -10
    2    9   EE     -1
    3    5   SS    -12
    3    5   SE      5
    3    5   ES     -9
    3    5   EE     -8
    3    8   SS     -3
    3    8   SE      2
    3    8   ES     -6
    3    8   EE      8
    3   10   SS      6
    3   10   SE     12
    3   10   ES     -1
    3   10   EE    -11
    4    8   SS    -12
    4    8   SE     -6
    4    8   ES     -6
    4    8   EE     -3
    4   12   SS     -7
    4   12   SE     -5
    4   12   ES     -4
    4   12   EE     11
    4   15   SS     -7
    4   15   SE     -2
    4   15   ES      5
    4   15   EE     -5
    5   12   SS     -7
    5   12   SE     -6
    5   12   ES    -12
    5   12   EE     -7
    5   17   SS     -4
    5   17   SE     -9
    5   17   ES    -12
    5   17   EE      9
    6   10   SS     -8
    6   10   SE      0
    6   10   ES      8
    6   10   EE     -9
    6   12   SS     -2
    6   12   SE     -6
    6   12   ES     -3
    6   12   EE      2
    6   15   SS     -5
    6   15   SE     -1
    6   15   ES     -1
    6   15   EE      9
    7   11   SS     -7
    7   11   SE      4
    7   11   ES      7
    7   11   EE      1
    7   17   SS     10
    7   17   SE    -10
    7   17   ES     -9
    7   17   EE     -8
    8   13   SS     -8
    8   13   SE     -6
    8   13   ES     -6
    8   13   EE      5
    8   14   SS      0
    8   14   SE     10
    8   14   ES     -1
    8   14   EE     -2
    9   16   SS      7
    9   16   SE      1
    9   16   ES      8
    9   16   EE     -5
   10   20   SS    -11
   10   20   SE     12
   10   20   ES      7
   10   20   EE      6
   10   21   SS     -6
   10   21   SE      5
   10   21   ES     -3
   10   21   EE     -8
   11   14   SS     -2
   11   14   SE     -5
   11   14   ES    -11
   11   14   EE      8
   11   15   SS     -4
   11   15   SE     -8
   11   15   ES      4
   11   15   EE      6
   12   13   SS      3
   12   13   SE     -6
   12   13   ES     11
   12   13   EE    -10
   12   16   SS      3
   12   16   SE      9
   12   16   ES      7
   12   16   EE    -10
   13   19   SS     -7
   13   19   SE      4
   19   13   SE      0
   13   19   ES      0
   13   19   EE     12
   14   19   SS      8
   14   19   SE     12
   14   19   ES      4
   14   19   EE     -1
   14   21   SS      3
   14   21   SE      4
   14   21   ES      2
   14   21   EE     -7
   15   16   SS     -2
   15   16   SE     10
   15   16   ES     -1
   15   16   EE      4
   16   20   SS     10
   16   20   SE      3
   16   20   ES     10
   16   20   EE      3
   17   18   SS      3
   17   18   SE     -4
   17   18   ES      6
   17   18   EE      0
   17   19   SS      8
   17   19   SE      6
   17   19   ES      8
   17   19   EE    -11
   17   21   SS     -6
   17   21   SE     -5
   17   21   ES     -6
   17   21   EE      2
   18   20   SS     -5
   18   20   SE      0
   18   20   ES     -6
   18   20   EE     -3
************************************************************************
